Route #1: 15 32 89 17 66 16 86 60 48 6 108 19 51 25 91 41 104
Route #2: 5 22 96
Route #3: 2 23 65 52 21 82 88 53 78 28 100 29 50
Route #4: 42 59 95 107 57 92 4 101 20 94 62 54
Route #5: 35 99 49 18 93 3 109 47 79 87 73 106
Route #6: 10 9 111
Route #7: 13 36 56 31 11 81 33 70 69 102 72 26 64 46
Route #8: 24 103 61 113 45 12 58 77 38 97 80 55 76 71 37 98 63 34
Route #9: 74 90 39 1 7
Route #10: 110 112 105 27 44 30 114 75 84 83 8 14 68 43 67 40 85
Cost 14936
